c 
c U(n,d) graph
c graph gen seed     : 2855
c number of vertices : 15
c max number of edges: 500
c Euclidean distance : 0.200000
c data structure     : sparse
c
c           Graph Stats
c number of vertices  : 14
c nonisolated vertices: 9
c number of edges     : 9
c edge density        : 0.098901
c max degree          : 3
c avg degree          : 1.29
c min degree          : 0
p col 14 9
e 3 7
e 3 5
e 4 12
e 4 11
e 5 8
e 5 7
e 6 14
e 7 8
e 11 12
